NAME : portcgen-15-3
COMMENT : portcgen N=15, seed=3
TYPE : TSP
DIMENSION : 15
EDGE_WEIGHT_TYPE : EUC_2D
NODE_COORD_SECTION
1 332926 153329
2 -114751 -274392
3 -170550 388497
4 -136960 423345
5 -269336 24693
6 133078 -318242
7 -33542 -348532
8 235903 269279
9 -220112 -351179
10 92990 -237312
11 -221636 -37334
12 207588 383148
13 85693 -31702
14 -364937 -404730
15 -69690 151364
